m = 8;

n = 10;

L = [200, 180, 160, 185, 180, 200, 160, 200];

S = [10, 25, 18, 16, 14, 16, 24, 19, 23, 19];

D =  [|0, 56, 86, 77, 81, 128, 107, 154, 70, 93, 53
      |56, 0, 79, 31, 62, 87, 61, 107, 37, 37, 24
      |86, 79, 0, 109, 17, 43, 110, 68, 43, 69, 55
      |87, 31, 109, 0, 92, 116, 30, 77, 66, 40, 55
      |81, 62, 17, 92, 0, 47, 93, 82, 26, 52, 38
      |128, 87, 43, 116, 47, 0, 117, 52, 58, 76, 75
      |116, 61, 110, 30, 93, 117, 0, 65, 67, 41, 63
      |163, 107, 78, 77, 82, 52, 65, 0, 93, 70, 110
      |70, 41, 43, 66, 26, 73, 67, 93, 0, 26, 17
      |93, 37, 69, 40, 52, 76, 41, 70, 26, 0, 40
      |53, 24, 55, 54, 38, 75, 63, 110, 17, 40, 0
|];
